0 2712
1 2712
2 2672
3 2564
4 2564
5 2341
6 2320
7 2239
8 2105
9 2105
10 2105
11 2090
12 2090
13 2090
14 2090
15 2069
16 2017
17 2017
18 2017
19 1997
20 1997
21 1997
22 1997
23 1997
24 1997
25 1997
26 1944
27 1944
28 1944
29 1944
30 1944
31 1944
32 1944
33 1901
34 1901
35 1901
36 1901
37 1901
38 1901
39 1901
40 1901
41 1901
42 1901
43 1901
44 1901
45 1901
46 1901
47 1901
48 1901
49 1901
50 1893
51 1858
52 1850
53 1812
54 1761
55 1761
56 1761
57 1761
58 1761
59 1761
60 1761
61 1761
62 1761
63 1761
64 1761
65 1761
66 1761
67 1761
68 1761
69 1761
70 1761
71 1761
72 1761
73 1761
74 1761
75 1761
76 1761
77 1761
78 1761
79 1761
80 1761
81 1761
82 1761
83 1761
84 1761
85 1761
86 1761
87 1761
88 1761
89 1761
90 1761
91 1761
92 1730
93 1730
94 1730
95 1730
96 1730
97 1730
98 1730
99 1730
100 1730
101 1730
102 1730
103 1730
104 1730
105 1730
106 1730
107 1730
108 1730
109 1730
110 1730
111 1730
112 1730
113 1730
114 1730
115 1730
116 1730
117 1720
118 1720
119 1720
120 1720
121 1720
122 1720
123 1720
124 1720
125 1720
126 1720
127 1720
128 1720
129 1720
130 1720
131 1720
132 1720
133 1720
134 1720
135 1720
136 1720
137 1720
138 1720
139 1720
140 1634
141 1634
142 1551
143 1551
144 1551
145 1551
146 1551
147 1551
148 1551
149 1551
150 1551
151 1551
152 1551
153 1551
154 1551
155 1551
156 1551
157 1551
158 1551
159 1551
160 1551
161 1551
162 1551
163 1551
164 1551
165 1551
166 1551
167 1551
168 1551
169 1551
170 1551
171 1551
172 1551
173 1551
174 1551
175 1551
176 1551
177 1551
178 1551
179 1551
180 1551
181 1551
182 1551
183 1551
184 1551
185 1551
186 1551
187 1551
188 1551
189 1524
190 1524
191 1524
192 1524
193 1524
194 1524
195 1524
196 1524
197 1524
198 1524
199 1524
200 1524
201 1524
202 1524
203 1524
204 1524
205 1524
206 1524
207 1524
208 1524
209 1524
210 1524
211 1524
212 1524
213 1524
214 1524
215 1524
216 1524
217 1524
218 1524
219 1524
220 1524
221 1524
222 1524
223 1524
224 1524
225 1524
226 1524
227 1524
228 1524
229 1524
230 1524
231 1524
232 1516
233 1516
234 1516
235 1516
236 1516
237 1516
238 1516
239 1516
240 1516
241 1516
242 1516
243 1516
244 1516
245 1516
246 1516
247 1516
248 1516
249 1516
250 1516
251 1516
252 1516
253 1516
254 1516
255 1516
256 1516
257 1516
258 1516
259 1516
260 1516
261 1516
262 1516
263 1516
264 1516
265 1516
266 1516
267 1516
268 1516
269 1516
270 1516
271 1516
272 1516
273 1516
274 1516
275 1516
276 1516
277 1516
278 1516
279 1516
280 1516
281 1516
282 1516
283 1516
284 1516
285 1516
286 1516
287 1516
288 1516
289 1516
290 1516
291 1516
292 1516
293 1516
294 1516
295 1516
296 1516
297 1516
298 1516
299 1516
300 1516
301 1516
302 1516
303 1516
304 1516
305 1516
306 1516
307 1516
308 1516
309 1516
310 1516
311 1516
312 1516
313 1516
314 1516
315 1516
316 1516
317 1516
318 1516
319 1516
320 1516
321 1516
322 1516
323 1516
324 1516
325 1413
326 1413
327 1413
328 1413
329 1413
330 1413
331 1413
332 1413
333 1413
334 1413
335 1413
336 1413
337 1413
338 1413
339 1413
340 1413
341 1413
342 1413
343 1413
344 1413
345 1413
346 1413
347 1413
348 1413
349 1413
350 1413
351 1413
352 1413
353 1413
354 1413
355 1413
356 1413
357 1413
358 1413
359 1413
360 1413
361 1413
362 1413
363 1413
364 1413
365 1413
366 1413
367 1413
368 1413
369 1413
370 1413
371 1413
372 1413
373 1413
374 1413
375 1413
376 1413
377 1413
378 1413
379 1413
380 1413
381 1413
382 1413
383 1413
384 1413
385 1413
386 1413
387 1413
388 1413
389 1413
390 1413
391 1413
392 1413
393 1413
394 1413
395 1413
396 1413
397 1413
398 1413
399 1413
400 1413
401 1413
402 1413
403 1413
404 1413
405 1413
406 1413
407 1413
408 1413
409 1413
410 1413
411 1413
412 1413
413 1413
414 1413
415 1413
416 1413
417 1413
418 1413
419 1413
420 1413
421 1413
422 1413
423 1413
424 1413
425 1413
426 1413
427 1413
428 1413
429 1413
430 1413
431 1413
432 1413
433 1413
434 1413
435 1413
436 1413
437 1413
438 1413
439 1413
440 1413
441 1413
442 1413
443 1413
444 1413
445 1413
446 1413
447 1413
448 1413
449 1413
450 1413
451 1413
452 1413
453 1413
454 1413
455 1413
456 1413
457 1413
458 1413
459 1413
460 1406
461 1406
462 1406
463 1393
464 1384
465 1384
466 1384
467 1384
468 1384
469 1384
470 1384
471 1384
472 1384
473 1384
474 1384
475 1384
476 1384
477 1384
478 1384
479 1384
480 1384
481 1384
482 1384
483 1384
484 1384
485 1384
486 1384
487 1384
488 1384
489 1384
490 1384
491 1384
492 1384
493 1384
494 1384
495 1384
496 1384
497 1384
498 1384
499 1384
500 1384
501 1384
502 1384
503 1384
504 1384
505 1384
506 1384
507 1384
508 1384
509 1384
510 1384
511 1384
512 1384
513 1384
514 1384
515 1384
516 1384
517 1384
518 1384
519 1384
520 1384
521 1384
522 1384
523 1384
524 1384
525 1384
526 1384
527 1384
528 1384
529 1384
530 1382
531 1349
532 1349
533 1349
534 1328
535 1328
536 1328
537 1328
538 1328
539 1328
540 1328
541 1328
542 1328
543 1328
544 1328
545 1328
546 1328
547 1328
548 1328
549 1328
550 1328
551 1328
552 1321
553 1321
554 1321
555 1321
556 1321
557 1321
558 1321
559 1321
560 1321
561 1321
562 1321
563 1321
564 1321
565 1321
566 1321
567 1321
568 1321
569 1321
570 1321
571 1321
572 1321
573 1321
574 1321
575 1321
576 1321
577 1321
578 1321
579 1321
580 1321
581 1321
582 1321
583 1321
584 1307
585 1307
586 1307
587 1290
588 1290
589 1290
590 1290
591 1290
592 1290
593 1290
594 1290
595 1290
596 1290
597 1290
598 1290
599 1290
600 1290
601 1290
602 1290
603 1290
604 1290
605 1290
606 1290
607 1290
608 1290
609 1290
610 1290
611 1290
612 1290
613 1290
614 1290
615 1290
616 1290
617 1290
618 1290
619 1290
620 1290
621 1290
622 1290
623 1290
624 1290
625 1290
626 1290
627 1290
628 1290
629 1290
630 1290
631 1290
632 1290
633 1290
634 1290
635 1290
636 1290
637 1290
638 1290
639 1290
640 1290
641 1290
642 1290
643 1290
644 1290
645 1290
646 1290
647 1290
648 1290
649 1290
650 1290
651 1290
652 1290
653 1290
654 1290
655 1290
656 1290
657 1290
658 1290
659 1290
660 1290
661 1290
662 1290
663 1290
664 1290
665 1290
666 1290
667 1290
668 1290
669 1290
670 1290
671 1290
672 1290
673 1290
674 1290
675 1290
676 1290
677 1290
678 1290
679 1290
680 1290
681 1290
682 1281
683 1281
684 1281
685 1281
686 1281
687 1281
688 1281
689 1281
690 1281
691 1281
692 1281
693 1281
694 1281
695 1281
696 1281
697 1281
698 1281
699 1281
700 1281
701 1281
702 1281
703 1281
704 1281
705 1281
706 1281
707 1281
708 1281
709 1270
710 1270
711 1270
712 1270
713 1270
714 1270
715 1270
716 1270
717 1270
718 1259
719 1259
720 1259
721 1259
722 1259
723 1259
724 1259
725 1259
726 1259
727 1259
728 1259
729 1259
730 1259
731 1259
732 1259
733 1259
734 1259
735 1259
736 1259
737 1259
738 1259
739 1259
740 1259
741 1259
742 1259
743 1259
744 1259
745 1259
746 1259
747 1259
748 1259
749 1259
750 1259
751 1259
752 1259
753 1259
754 1259
755 1259
756 1259
757 1259
758 1259
759 1259
760 1259
761 1259
762 1259
763 1259
764 1259
765 1259
766 1259
767 1259
768 1259
769 1259
770 1259
771 1259
772 1259
773 1259
774 1259
775 1259
776 1259
777 1259
778 1259
779 1259
780 1259
781 1259
782 1259
783 1259
784 1259
785 1259
786 1259
787 1259
788 1259
789 1259
790 1244
791 1244
792 1244
793 1244
794 1244
795 1209
796 1209
797 1209
798 1209
799 1209
800 1209
801 1209
802 1209
803 1209
804 1209
805 1209
806 1209
807 1209
808 1209
809 1209
810 1209
811 1209
812 1209
813 1209
814 1209
815 1209
816 1208
817 1208
818 1208
819 1208
820 1208
821 1208
822 1208
823 1208
824 1208
825 1208
826 1208
827 1208
828 1208
829 1208
830 1208
831 1208
832 1208
833 1208
834 1208
835 1208
836 1208
837 1208
838 1208
839 1208
840 1208
841 1208
842 1208
843 1208
844 1208
845 1208
846 1208
847 1208
848 1208
849 1208
850 1208
851 1208
852 1208
853 1208
854 1208
855 1208
856 1208
857 1208
858 1208
859 1208
860 1208
861 1208
862 1208
863 1208
864 1208
865 1208
866 1208
867 1208
868 1208
869 1208
870 1208
871 1208
872 1208
873 1208
874 1208
875 1208
876 1208
877 1208
878 1208
879 1208
880 1208
881 1208
882 1208
883 1208
884 1208
885 1208
886 1208
887 1208
888 1208
889 1208
890 1208
891 1208
892 1208
893 1208
894 1208
895 1208
896 1208
897 1208
898 1208
899 1208
900 1208
901 1208
902 1208
903 1208
904 1208
905 1208
906 1208
907 1208
908 1208
909 1208
910 1208
911 1208
912 1208
913 1208
914 1208
915 1208
916 1208
917 1208
918 1208
919 1208
920 1208
921 1208
922 1208
923 1208
924 1208
925 1208
926 1208
927 1208
928 1208
929 1208
930 1208
931 1208
932 1208
933 1208
934 1208
935 1208
936 1204
937 1204
938 1204
939 1204
940 1204
941 1204
942 1204
943 1204
944 1204
945 1204
946 1204
947 1204
948 1204
949 1204
950 1204
951 1204
952 1204
953 1204
954 1204
955 1204
956 1204
957 1204
958 1204
959 1204
960 1204
961 1204
962 1204
963 1204
964 1204
965 1204
966 1204
967 1204
968 1204
969 1204
970 1204
971 1204
972 1204
973 1204
974 1204
975 1204
976 1204
977 1204
978 1204
979 1204
980 1204
981 1204
982 1204
983 1204
984 1204
985 1204
986 1204
987 1204
988 1204
989 1202
990 1202
991 1202
992 1202
993 1202
994 1202
995 1202
996 1202
997 1202
998 1202
999 1202
Best: [[31,22,14,3,7,26],
       [17,32,20,18,8],
       [28,6,21,9,12,5,4,29,15],
       [27,24,23,10,16,11,19,30,25],
       [2,13]], fitness: 1202
